 106993
 850205
 653233
 804229
 225314
 390693
 762871
 600398
 679896
 422524
 351841
 805529
 782627
 748760
 657811
 165266
 767060
 759084
 389482
 273813
 428405
 180338
 694417
  58365
 755631
 876824
 262779
 507369
 878324
  43797
